% ----DATA VARIABLES----

t=15;%number of attributes
k=3;%max length of the support set
n=30;%number of positive instances
m=30;%number of negative instances
c=5;%number of atMostOne Constraints

% ----OMEGAS----

omegap= [| 0, 0, 1, 1, 0, 0, 0, 0, 0, 1, 0, 0, 1, 1, 1|
 0, 0, 0, 0, 0, 1, 0, 1, 1, 1, 0, 0, 1, 0, 1|
 0, 0, 1, 0, 1, 1, 0, 1, 0, 0, 1, 1, 1, 1, 1|
 0, 1, 0, 0, 0, 0, 0, 0, 0, 1, 0, 0, 1, 0, 0|
 1, 1, 0, 0, 1, 1, 0, 1, 1, 1, 1, 1, 0, 0, 1|
 1, 1, 0, 0, 0, 0, 0, 1, 0, 1, 1, 0, 0, 1, 0|
 0, 0, 0, 1, 1, 1, 1, 0, 0, 1, 0, 0, 0, 0, 0|
 1, 1, 1, 0, 1, 1, 1, 1, 0, 1, 1, 1, 0, 1, 1|
 0, 0, 1, 1, 0, 1, 1, 1, 0, 1, 1, 1, 1, 0, 0|
 1, 1, 0, 1, 1, 1, 1, 0, 0, 0, 0, 0, 1, 1, 1|
 0, 1, 0, 0, 0, 0, 1, 0, 1, 0, 0, 1, 0, 1, 0|
 0, 1, 1, 0, 1, 0, 0, 1, 0, 0, 0, 1, 0, 1, 0|
 1, 0, 1, 0, 0, 1, 1, 1, 0, 1, 0, 1, 1, 0, 0|
 0, 1, 1, 0, 0, 0, 0, 0, 0, 0, 1, 0, 1, 1, 1|
 0, 0, 0, 0, 0, 1, 1, 0, 1, 1, 0, 0, 0, 1, 1|
 0, 1, 0, 1, 0, 1, 0, 0, 0, 0, 0, 1, 1, 1, 0|
 0, 1, 1, 1, 1, 0, 1, 1, 1, 1, 1, 1, 0, 1, 0|
 0, 1, 0, 1, 1, 1, 1, 0, 1, 1, 0, 0, 0, 1, 1|
 0, 1, 1, 1, 0, 1, 1, 1, 1, 1, 0, 1, 0, 1, 0|
 1, 1, 1, 0, 1, 0, 0, 1, 0, 0, 1, 1, 1, 1, 0|
 0, 1, 1, 1, 1, 1, 1, 1, 1, 1, 1, 0, 1, 0, 0|
 0, 1, 1, 0, 0, 0, 0, 0, 1, 0, 0, 0, 0, 1, 0|
 0, 0, 0, 0, 1, 0, 1, 0, 1, 0, 0, 1, 0, 1, 1|
 0, 0, 0, 1, 0, 1, 1, 1, 1, 0, 1, 1, 1, 0, 1|
 1, 1, 1, 0, 1, 0, 0, 1, 0, 1, 1, 0, 0, 0, 1|
 0, 1, 1, 0, 0, 0, 0, 0, 0, 1, 0, 0, 0, 0, 0|
 1, 1, 0, 0, 0, 0, 0, 1, 1, 1, 1, 1, 1, 0, 0|
 1, 1, 0, 1, 1, 0, 0, 0, 1, 1, 1, 1, 1, 1, 1|
 1, 0, 1, 1, 0, 1, 1, 1, 0, 0, 1, 0, 0, 0, 0|
 1, 1, 0, 0, 1, 0, 0, 0, 1, 1, 0, 1, 1, 0, 0|];

omegan= [| 1, 1, 1, 1, 0, 1, 0, 1, 1, 1, 1, 0, 0, 1, 1|
 1, 1, 0, 1, 1, 1, 1, 0, 1, 0, 0, 0, 1, 0, 1|
 0, 1, 1, 1, 1, 1, 1, 1, 1, 0, 1, 1, 0, 0, 1|
 1, 1, 0, 0, 1, 0, 0, 1, 0, 0, 0, 1, 1, 0, 0|
 1, 0, 0, 1, 1, 1, 1, 0, 1, 0, 1, 1, 0, 1, 1|
 0, 1, 0, 1, 1, 1, 1, 1, 0, 0, 1, 0, 1, 1, 0|
 1, 0, 0, 1, 1, 0, 1, 0, 1, 1, 0, 1, 0, 1, 1|
 0, 1, 0, 1, 0, 0, 1, 0, 0, 1, 1, 1, 1, 0, 0|
 0, 1, 0, 0, 0, 0, 1, 0, 1, 1, 1, 0, 1, 1, 1|
 1, 0, 1, 0, 0, 0, 0, 0, 1, 0, 1, 1, 0, 0, 0|
 0, 1, 0, 1, 0, 1, 1, 1, 1, 0, 1, 0, 0, 1, 0|
 1, 1, 0, 0, 0, 0, 0, 1, 1, 1, 1, 1, 0, 0, 1|
 0, 0, 1, 1, 1, 1, 1, 1, 1, 1, 1, 0, 1, 1, 1|
 0, 1, 0, 0, 1, 1, 0, 0, 1, 1, 0, 1, 0, 1, 0|
 1, 1, 1, 1, 0, 1, 0, 0, 1, 0, 1, 0, 0, 1, 1|
 1, 0, 0, 1, 1, 1, 0, 0, 0, 1, 1, 0, 1, 1, 0|
 0, 0, 0, 0, 0, 0, 1, 0, 0, 1, 1, 1, 1, 1, 0|
 0, 0, 1, 0, 1, 0, 1, 0, 0, 0, 1, 0, 1, 1, 0|
 1, 0, 1, 1, 0, 1, 0, 0, 1, 0, 1, 1, 1, 0, 0|
 1, 0, 1, 0, 1, 0, 0, 0, 1, 0, 1, 0, 0, 0, 1|
 0, 1, 1, 1, 1, 0, 0, 0, 1, 1, 0, 1, 0, 0, 0|
 0, 0, 0, 0, 1, 1, 1, 1, 0, 1, 1, 1, 0, 1, 0|
 0, 0, 1, 0, 0, 0, 1, 1, 1, 1, 1, 1, 0, 1, 0|
 0, 0, 0, 1, 0, 1, 0, 0, 1, 1, 1, 0, 0, 1, 0|
 0, 1, 0, 1, 1, 1, 1, 1, 0, 1, 1, 1, 1, 0, 1|
 0, 1, 1, 1, 1, 0, 1, 0, 0, 1, 0, 1, 1, 1, 0|
 1, 1, 1, 1, 1, 1, 1, 1, 1, 0, 0, 0, 1, 0, 0|
 0, 0, 0, 0, 1, 0, 1, 1, 1, 0, 0, 0, 1, 1, 1|
 0, 0, 1, 1, 1, 0, 0, 1, 1, 0, 1, 1, 0, 0, 1|
 0, 1, 1, 0, 1, 1, 1, 1, 1, 1, 0, 1, 1, 0, 1|];

% ----CONSTRAINS----

atMostOne=[{13, 8}, {4}, {6}, {5}, {10}];